c File: data_files/evolved_graphs/g3714.col
c
c Auto generated graph
c
p edge 100 1111
e 1 2
e 1 15
e 1 17
e 1 25
e 1 41
e 1 46
e 1 48
e 1 55
e 1 61
e 1 66
e 1 73
e 1 82
e 1 96
e 1 99
e 2 20
e 2 26
e 2 29
e 2 30
e 2 31
e 2 32
e 2 34
e 2 37
e 2 39
e 2 40
e 2 42
e 2 51
e 2 53
e 2 54
e 2 70
e 2 74
e 2 79
e 2 82
e 2 90
e 2 95
e 2 96
e 2 98
e 2 99
e 3 11
e 3 15
e 3 17
e 3 18
e 3 21
e 3 24
e 3 26
e 3 29
e 3 31
e 3 32
e 3 36
e 3 45
e 3 50
e 3 54
e 3 60
e 3 66
e 3 70
e 3 74
e 3 75
e 3 81
e 3 83
e 3 85
e 3 86
e 3 97
e 4 5
e 4 6
e 4 8
e 4 10
e 4 23
e 4 29
e 4 30
e 4 31
e 4 32
e 4 36
e 4 46
e 4 47
e 4 50
e 4 53
e 4 57
e 4 60
e 4 70
e 4 72
e 4 83
e 4 86
e 4 99
e 4 100
e 5 15
e 5 18
e 5 29
e 5 30
e 5 31
e 5 39
e 5 40
e 5 42
e 5 43
e 5 45
e 5 49
e 5 62
e 5 66
e 5 69
e 5 70
e 5 73
e 5 75
e 5 76
e 5 85
e 5 88
e 5 91
e 5 98
e 6 9
e 6 11
e 6 18
e 6 19
e 6 24
e 6 29
e 6 31
e 6 32
e 6 33
e 6 36
e 6 41
e 6 59
e 6 60
e 6 62
e 6 71
e 6 76
e 6 81
e 6 84
e 6 90
e 7 9
e 7 11
e 7 24
e 7 25
e 7 27
e 7 30
e 7 31
e 7 32
e 7 33
e 7 36
e 7 38
e 7 63
e 7 74
e 7 75
e 7 79
e 7 82
e 7 85
e 7 88
e 7 96
e 7 97
e 8 12
e 8 15
e 8 16
e 8 21
e 8 22
e 8 28
e 8 29
e 8 31
e 8 32
e 8 39
e 8 40
e 8 42
e 8 43
e 8 51
e 8 68
e 8 75
e 8 78
e 8 84
e 8 93
e 8 100
e 9 13
e 9 17
e 9 21
e 9 30
e 9 31
e 9 32
e 9 33
e 9 36
e 9 42
e 9 45
e 9 48
e 9 50
e 9 60
e 9 69
e 9 75
e 9 76
e 9 84
e 9 87
e 9 89
e 9 91
e 9 92
e 10 12
e 10 13
e 10 18
e 10 29
e 10 31
e 10 33
e 10 37
e 10 38
e 10 41
e 10 49
e 10 50
e 10 56
e 10 57
e 10 64
e 10 70
e 10 75
e 10 77
e 10 88
e 10 90
e 10 95
e 10 98
e 11 25
e 11 27
e 11 31
e 11 48
e 11 66
e 11 72
e 11 74
e 11 80
e 11 88
e 11 98
e 11 99
e 12 23
e 12 31
e 12 32
e 12 36
e 12 37
e 12 46
e 12 53
e 12 60
e 12 63
e 12 69
e 12 71
e 12 73
e 12 76
e 12 77
e 12 78
e 12 82
e 12 94
e 12 99
e 13 14
e 13 22
e 13 29
e 13 30
e 13 31
e 13 32
e 13 46
e 13 52
e 13 58
e 13 66
e 13 80
e 13 87
e 13 91
e 14 29
e 14 31
e 14 41
e 14 44
e 14 50
e 14 52
e 14 53
e 14 72
e 14 74
e 14 76
e 14 83
e 14 97
e 15 16
e 15 20
e 15 23
e 15 31
e 15 41
e 15 43
e 15 64
e 15 73
e 15 74
e 15 83
e 15 85
e 15 86
e 15 89
e 15 94
e 16 21
e 16 22
e 16 25
e 16 30
e 16 32
e 16 41
e 16 43
e 16 50
e 16 60
e 16 62
e 16 67
e 16 69
e 16 72
e 16 73
e 16 75
e 16 76
e 16 83
e 16 94
e 17 18
e 17 22
e 17 29
e 17 30
e 17 31
e 17 33
e 17 35
e 17 38
e 17 40
e 17 42
e 17 43
e 17 45
e 17 52
e 17 63
e 17 79
e 17 80
e 17 85
e 17 89
e 17 90
e 17 99
e 18 21
e 18 27
e 18 29
e 18 30
e 18 31
e 18 32
e 18 40
e 18 57
e 18 61
e 18 63
e 18 78
e 18 81
e 18 95
e 19 23
e 19 25
e 19 26
e 19 27
e 19 30
e 19 31
e 19 33
e 19 41
e 19 42
e 19 44
e 19 47
e 19 48
e 19 49
e 19 51
e 19 58
e 19 61
e 19 63
e 19 67
e 19 71
e 19 73
e 19 74
e 19 80
e 19 83
e 19 84
e 19 86
e 19 93
e 19 95
e 20 23
e 20 29
e 20 30
e 20 32
e 20 38
e 20 41
e 20 44
e 20 46
e 20 64
e 20 72
e 20 79
e 20 80
e 20 81
e 20 83
e 20 85
e 20 92
e 20 94
e 21 27
e 21 28
e 21 29
e 21 31
e 21 32
e 21 38
e 21 40
e 21 44
e 21 61
e 21 70
e 21 80
e 21 81
e 21 86
e 21 88
e 21 90
e 21 91
e 21 94
e 21 95
e 22 28
e 22 31
e 22 32
e 22 35
e 22 37
e 22 40
e 22 45
e 22 54
e 22 62
e 22 84
e 22 87
e 22 95
e 23 25
e 23 28
e 23 29
e 23 30
e 23 32
e 23 33
e 23 36
e 23 44
e 23 46
e 23 48
e 23 49
e 23 52
e 23 53
e 23 67
e 23 75
e 23 77
e 23 80
e 23 85
e 23 94
e 23 95
e 23 96
e 23 98
e 24 32
e 24 41
e 24 46
e 24 48
e 24 49
e 24 50
e 24 52
e 24 53
e 24 57
e 24 60
e 24 62
e 24 72
e 24 73
e 24 76
e 24 79
e 24 82
e 24 83
e 24 86
e 24 92
e 24 94
e 25 30
e 25 31
e 25 34
e 25 40
e 25 44
e 25 48
e 25 51
e 25 53
e 25 54
e 25 58
e 25 59
e 25 62
e 25 64
e 25 67
e 25 72
e 25 91
e 25 94
e 26 31
e 26 41
e 26 43
e 26 67
e 26 72
e 26 74
e 26 77
e 26 86
e 26 94
e 26 95
e 26 97
e 27 28
e 27 30
e 27 31
e 27 33
e 27 35
e 27 36
e 27 44
e 27 45
e 27 72
e 27 76
e 27 80
e 27 85
e 27 92
e 28 35
e 28 38
e 28 46
e 28 48
e 28 52
e 28 58
e 28 59
e 28 62
e 28 63
e 28 64
e 28 67
e 28 70
e 28 75
e 28 79
e 28 84
e 28 87
e 28 88
e 28 90
e 28 94
e 28 95
e 28 96
e 29 38
e 29 40
e 29 46
e 29 50
e 29 51
e 29 52
e 29 58
e 29 59
e 29 67
e 29 68
e 29 76
e 29 79
e 29 80
e 29 91
e 29 92
e 29 100
e 30 45
e 30 49
e 30 52
e 30 56
e 30 58
e 30 59
e 30 64
e 30 66
e 30 67
e 30 68
e 30 78
e 30 82
e 30 84
e 30 86
e 30 90
e 30 100
e 31 40
e 31 43
e 31 48
e 31 54
e 31 59
e 31 62
e 31 65
e 31 66
e 31 68
e 31 71
e 31 74
e 31 76
e 31 79
e 31 82
e 31 86
e 31 93
e 31 96
e 32 33
e 32 39
e 32 43
e 32 45
e 32 63
e 32 78
e 32 81
e 32 83
e 32 89
e 32 94
e 32 97
e 33 39
e 33 42
e 33 44
e 33 46
e 33 52
e 33 64
e 33 68
e 33 70
e 33 73
e 33 76
e 33 77
e 33 79
e 33 80
e 33 83
e 33 92
e 33 95
e 34 35
e 34 37
e 34 41
e 34 53
e 34 60
e 34 65
e 34 73
e 34 81
e 34 82
e 34 90
e 34 94
e 35 51
e 35 55
e 35 58
e 35 63
e 35 64
e 35 65
e 35 67
e 35 76
e 35 88
e 35 95
e 36 39
e 36 47
e 36 52
e 36 55
e 36 60
e 36 63
e 36 74
e 36 79
e 36 85
e 36 86
e 36 87
e 36 95
e 37 41
e 37 47
e 37 49
e 37 56
e 37 59
e 37 61
e 37 67
e 37 72
e 37 75
e 37 80
e 37 82
e 37 83
e 37 88
e 37 91
e 37 96
e 37 100
e 38 44
e 38 47
e 38 51
e 38 54
e 38 57
e 38 62
e 38 63
e 38 66
e 38 69
e 38 71
e 38 82
e 38 93
e 38 94
e 38 95
e 38 98
e 39 47
e 39 49
e 39 50
e 39 53
e 39 57
e 39 61
e 39 78
e 39 80
e 39 87
e 39 89
e 40 41
e 40 43
e 40 47
e 40 51
e 40 69
e 40 70
e 40 73
e 40 74
e 40 76
e 40 80
e 40 85
e 40 86
e 40 89
e 40 93
e 41 42
e 41 43
e 41 44
e 41 45
e 41 53
e 41 60
e 41 63
e 41 70
e 41 71
e 41 72
e 41 73
e 41 74
e 41 80
e 41 81
e 41 82
e 41 88
e 41 91
e 42 45
e 42 49
e 42 52
e 42 53
e 42 58
e 42 64
e 42 70
e 42 87
e 42 91
e 42 97
e 43 45
e 43 53
e 43 61
e 43 72
e 43 82
e 43 83
e 43 84
e 43 88
e 43 100
e 44 45
e 44 49
e 44 50
e 44 56
e 44 61
e 44 74
e 44 75
e 44 83
e 44 86
e 44 88
e 44 89
e 44 97
e 44 98
e 45 51
e 45 60
e 45 61
e 45 70
e 45 73
e 45 83
e 45 85
e 45 87
e 45 88
e 45 98
e 46 48
e 46 56
e 46 58
e 46 73
e 46 76
e 46 78
e 46 82
e 46 85
e 46 89
e 46 90
e 46 92
e 46 95
e 46 98
e 47 54
e 47 55
e 47 57
e 47 66
e 47 69
e 47 87
e 47 90
e 47 96
e 47 98
e 48 49
e 48 51
e 48 58
e 48 60
e 48 68
e 48 79
e 48 80
e 48 88
e 48 89
e 48 91
e 48 93
e 49 50
e 49 57
e 49 61
e 49 68
e 49 72
e 49 73
e 49 74
e 49 80
e 49 81
e 49 83
e 49 91
e 49 93
e 49 94
e 49 97
e 50 53
e 50 54
e 50 64
e 50 69
e 50 81
e 50 85
e 50 94
e 50 99
e 50 100
e 51 52
e 51 59
e 51 60
e 51 62
e 51 63
e 51 73
e 51 79
e 51 83
e 51 90
e 51 97
e 51 99
e 52 55
e 52 63
e 52 64
e 52 68
e 52 79
e 52 83
e 52 85
e 52 97
e 52 98
e 53 56
e 53 66
e 53 71
e 53 77
e 53 84
e 53 85
e 53 87
e 53 94
e 53 97
e 54 55
e 54 58
e 54 60
e 54 61
e 54 68
e 54 69
e 54 74
e 54 78
e 54 80
e 54 81
e 54 83
e 54 88
e 55 60
e 55 69
e 55 70
e 55 75
e 55 78
e 55 79
e 55 80
e 55 84
e 55 85
e 55 87
e 55 88
e 55 99
e 56 57
e 56 63
e 56 65
e 56 72
e 56 75
e 56 78
e 56 88
e 56 95
e 57 58
e 57 61
e 57 62
e 57 64
e 57 68
e 57 70
e 57 73
e 57 86
e 57 89
e 57 91
e 57 92
e 58 61
e 58 62
e 58 66
e 58 67
e 58 76
e 58 83
e 58 85
e 58 87
e 58 91
e 58 95
e 59 69
e 59 72
e 59 73
e 59 76
e 59 81
e 59 83
e 59 89
e 59 93
e 59 95
e 60 63
e 60 69
e 60 70
e 60 72
e 60 80
e 60 81
e 60 84
e 60 87
e 60 88
e 60 91
e 60 92
e 61 62
e 61 63
e 61 77
e 61 80
e 61 83
e 61 84
e 61 89
e 61 93
e 61 99
e 62 67
e 62 70
e 62 75
e 62 78
e 62 83
e 62 84
e 62 89
e 62 90
e 62 94
e 62 99
e 63 65
e 63 67
e 63 68
e 63 69
e 63 72
e 63 74
e 63 78
e 63 86
e 63 88
e 63 95
e 63 100
e 64 67
e 64 70
e 64 73
e 64 75
e 64 77
e 64 79
e 64 83
e 64 89
e 64 94
e 64 95
e 64 98
e 64 99
e 65 81
e 65 96
e 65 100
e 66 68
e 66 70
e 66 77
e 66 86
e 66 88
e 66 89
e 66 90
e 66 92
e 66 93
e 66 96
e 66 100
e 67 74
e 67 75
e 67 88
e 67 91
e 67 93
e 67 95
e 67 98
e 67 99
e 67 100
e 68 74
e 68 80
e 68 97
e 68 98
e 69 74
e 69 80
e 69 84
e 69 94
e 69 95
e 69 96
e 69 98
e 69 99
e 69 100
e 70 75
e 70 79
e 70 81
e 70 96
e 70 97
e 70 99
e 71 74
e 71 76
e 71 80
e 71 96
e 71 99
e 72 78
e 72 84
e 72 87
e 72 89
e 72 94
e 72 97
e 72 99
e 73 74
e 73 81
e 73 98
e 74 81
e 74 94
e 74 97
e 75 81
e 75 82
e 75 85
e 75 86
e 75 96
e 75 97
e 75 98
e 75 99
e 76 80
e 76 84
e 76 85
e 76 86
e 76 87
e 76 88
e 76 89
e 76 94
e 76 95
e 76 96
e 76 98
e 76 99
e 76 100
e 77 80
e 77 84
e 77 87
e 77 89
e 77 90
e 77 92
e 77 94
e 77 95
e 77 97
e 77 98
e 77 99
e 77 100
e 78 80
e 78 82
e 78 86
e 78 87
e 78 90
e 78 94
e 78 96
e 78 97
e 78 98
e 78 99
e 78 100
e 79 80
e 79 91
e 79 96
e 79 97
e 79 98
e 79 99
e 80 87
e 80 90
e 80 96
e 80 97
e 81 82
e 81 83
e 81 96
e 81 97
e 81 100
e 82 88
e 82 95
e 82 96
e 82 98
e 82 99
e 82 100
e 83 92
e 83 94
e 83 97
e 83 98
e 83 99
e 83 100
e 84 87
e 84 91
e 84 93
e 84 95
e 84 98
e 84 99
e 85 92
e 85 96
e 85 98
e 86 88
e 86 96
e 86 99
e 86 100
e 87 90
e 87 96
e 87 98
e 87 99
e 87 100
e 88 96
e 88 98
e 88 99
e 88 100
e 89 94
e 89 95
e 89 96
e 89 97
e 89 98
e 89 100
e 90 93
e 90 94
e 90 95
e 90 97
e 90 98
e 90 100
e 91 93
e 91 94
e 91 95
e 91 96
e 91 99
e 92 94
e 92 95
e 92 98
e 92 99
e 93 95
e 93 97
e 93 98
e 93 99
e 93 100
e 94 96
e 94 100
e 95 98
e 95 100
e 96 99
e 96 100
